20
1 0 2
3 0 2
4 3 5
5 0 1
5 2 4
6 3 7
6 4 5
6 5 10
7 1 4
7 2 4
7 3 2
7 6 7
8 2 10
8 4 2
8 6 4
8 7 2
9 0 1
9 1 1
10 0 1
10 2 10
10 3 4
10 4 2
10 7 1
11 0 5
11 3 7
11 5 10
11 6 8
11 7 7
11 8 2
12 1 6
12 5 5
12 8 1
12 9 4
12 10 9
12 11 5
13 1 10
13 2 2
13 3 7
13 4 2
13 7 5
13 12 9
14 1 9
14 2 5
14 3 4
14 4 3
14 5 9
14 7 7
14 8 7
14 9 10
14 11 9
15 1 4
15 6 5
15 7 4
15 8 8
15 9 8
15 11 9
15 12 4
15 14 8
16 1 10
16 3 3
16 5 3
16 7 5
16 8 6
16 9 4
16 10 4
17 1 9
17 2 4
17 3 7
17 4 9
17 6 5
17 7 5
17 13 10
17 14 7
17 15 5
17 16 4
18 1 6
18 2 8
18 4 5
18 6 7
18 7 10
18 8 4
18 9 8
18 12 1
18 14 2
18 15 4
18 17 3
19 0 5
19 1 7
19 2 1
19 4 3
19 6 3
19 7 5
19 8 10
19 9 5
19 11 5
19 12 7
19 13 6
19 15 3
19 16 5
19 17 2
19 18 4
